<?xml version = "1.0" standalone="yes"?>
<!-- This file has been generated by DOcplex version 2.23.222  -->
<CPLEXSolution version="1.0">
 <header
   problemName="CVRP"
   objectiveValue="6484.55"
  />
 <variables>
  <variable name="x_0_5" index="4" value="1.00000"/>
  <variable name="x_0_8" index="7" value="1.00000"/>
  <variable name="x_0_10" index="9" value="1.00000"/>
  <variable name="x_0_11" index="10" value="1.00000"/>
  <variable name="x_0_12" index="11" value="1.00000"/>
  <variable name="x_0_13" index="12" value="1.00000"/>
  <variable name="x_1_6" index="18" value="1.00000"/>
  <variable name="x_2_7" index="32" value="1.00000"/>
  <variable name="x_3_9" index="47" value="1.00000"/>
  <variable name="x_4_0" index="52" value="1.00000"/>
  <variable name="x_5_1" index="66" value="1.00000"/>
  <variable name="x_6_4" index="82" value="1.00000"/>
  <variable name="x_7_0" index="91" value="1.00000"/>
  <variable name="x_8_0" index="104" value="1.00000"/>
  <variable name="x_9_2" index="119" value="1.00000"/>
  <variable name="x_10_0" index="130" value="1.00000"/>
  <variable name="x_11_3" index="146" value="1.00000"/>
  <variable name="x_12_0" index="156" value="1.00000"/>
  <variable name="x_13_0" index="169" value="1.00000"/>
  <variable name="u_1" index="182" value="39.00000"/>
  <variable name="u_2" index="183" value="59.00000"/>
  <variable name="u_3" index="184" value="22.00000"/>
  <variable name="u_4" index="185" value="71.00000"/>
  <variable name="u_5" index="186" value="18.00000"/>
  <variable name="u_6" index="187" value="70.00000"/>
  <variable name="u_7" index="188" value="68.00000"/>
  <variable name="u_8" index="189" value="71.00000"/>
  <variable name="u_9" index="190" value="29.00000"/>
  <variable name="u_10" index="191" value="66.00000"/>
  <variable name="u_11" index="192" value="16.00000"/>
  <variable name="u_12" index="193" value="59.00000"/>
  <variable name="u_13" index="194" value="51.00000"/>
 </variables>
</CPLEXSolution>
